\ Model matlab
\ LP format - for model browsing. Use MPS format to capture full model detail.
Minimize
  2 P1 + 1.75 P2 + 0 P3 + 0 P4 + 0 P5 + 0 P6 + 0 P7 + 0 P8 + 0 P9 + 0 P10
   + 0 P11 + 0 P12 + 3 P13 + 0 P14 + 0 P15 + 0 P16 + 0 P17 + 0 P18 + 0 P19
   + 0 P20 + 0 P21 + P22 + 3 P23 + 0 P24 + 0 P25 + 0 P26 + 3.25 P27 + 0 P28
   + 0 P29 + 0 P30 + 0 Q3 + 0 Q4 + 0 Q5 + 0 Q6 + 0 Q7 + 0 Q8 + 0 Q9 + 0 Q10
   + 0 Q11 + 0 Q12 + 0 Q14 + 0 Q15 + 0 Q16 + 0 Q17 + 0 Q18 + 0 Q19 + 0 Q20
   + 0 Q21 + 0 Q24 + 0 Q25 + 0 Q26 + 0 Q28 + 0 Q29 + 0 Q30 + [ 0.04 P1 ^2
   + 0.035 P2 ^2 + 0.05 P13 ^2 + 0.125 P22 ^2 + 0.05 P23 ^2
   + 0.01668 P27 ^2 + 0.04 Q1 ^2 + 0.035 Q2 ^2 + 0.05 Q13 ^2 + 0.125 Q22 ^2
   + 0.05 Q23 ^2 + 0.01668 Q27 ^2 ] / 2 
Subject To
 R0: <= 0
 R1: <= 0
 R2: <= 0
 R3: <= 0
 R4: <= 0
 R5: <= 0
 R6: <= 0
 R7: <= 0
 R8: <= 0
 R9: <= 0
 R10: <= 0
 R11: <= 0
 R12: <= 0
 R13: <= 0
 R14: <= 0
 R15: <= 0
 R16: <= 0
 R17: <= 0
 R18: <= 0
 R19: <= 0
 R20: <= 0
 R21: <= 0
 R22: <= 0
 R23: <= 0
 R24: <= 0
 R25: <= 0
 R26: <= 0
 R27: <= 0
 R28: <= 0
 R29: <= 0
 R30: <= 0
 R31: <= 0
 R32: <= 0
 R33: <= 0
 R34: <= 0
 R35: <= 0
 R36: <= 0
 R37: <= 0
 R38: <= 0
 R39: <= 0
 R40: <= 0
 R41: <= 0
 R42: <= 0
 R43: <= 0
 R44: <= 0
 R45: <= 0
 R46: <= 0
 R47: <= 0
 R48: <= 0
 R49: <= 0
 R50: <= 0
 R51: <= 0
 R52: <= 0
 R53: <= 0
 R54: <= 0
 R55: <= 0
 R56: <= 0
 R57: <= 0
 R58: <= 0
 R59: <= 0
 R60: <= 0
 R61: <= 0
 R62: <= 0
 R63: <= 0
 R64: <= 0
 R65: <= 0
 R66: <= 0
 R67: <= 0
 R68: <= 0
 R69: <= 0
 R70: <= 0
 R71: <= 0
 R72: <= 0
 R73: <= 0
 R74: <= 0
 R75: <= 0
 R76: <= 0
 R77: <= 0
 R78: <= 0
 R79: <= 0
 R80: <= 0
 R81: <= 0
 R82: <= -0
 R83: <= -0
 R84: <= -0
 R85: <= -0
 R86: <= -0
 R87: <= -0
 R88: <= -0
 R89: <= -0
 R90: <= -0
 R91: <= -0
 R92: <= -0
 R93: <= -0
 R94: <= -0
 R95: <= -0
 R96: <= -0
 R97: <= -0
 R98: <= -0
 R99: <= -0
 R100: <= -0
 R101: <= -0
 R102: <= -0
 R103: <= -0
 R104: <= -0
 R105: <= -0
 R106: <= -0
 R107: <= -0
 R108: <= -0
 R109: <= -0
 R110: <= -0
 R111: <= -0
 R112: <= 0
 R113: <= 0
 R114: <= 0
 R115: <= 0
 R116: <= 0
 R117: <= 0
 R118: <= 0
 R119: <= 0
 R120: <= 0
 R121: <= 0
 R122: <= 0
 R123: <= 0
 R124: <= 0
 R125: <= 0
 R126: <= 0
 R127: <= 0
 R128: <= 0
 R129: <= 0
 R130: <= 0
 R131: <= 0
 R132: <= 0
 R133: <= 0
 R134: <= 0
 R135: <= 0
 R136: <= 0
 R137: <= 0
 R138: <= 0
 R139: <= 0
 R140: <= 0
 R141: <= 0
 R142: P1 + P2 + P13 + P22 + P23 + P27 = 189.2
 R143: Q1 + Q2 + Q13 + Q22 + Q23 + Q27 = 107.2
Bounds
 P1 <= 80
 P2 <= 80
 P3 = 0
 P4 = 0
 P5 = 0
 P6 = 0
 P7 = 0
 P8 = 0
 P9 = 0
 P10 = 0
 P11 = 0
 P12 = 0
 P13 <= 40
 P14 = 0
 P15 = 0
 P16 = 0
 P17 = 0
 P18 = 0
 P19 = 0
 P20 = 0
 P21 = 0
 P22 <= 50
 P23 <= 30
 P24 = 0
 P25 = 0
 P26 = 0
 P27 <= 55
 P28 = 0
 P29 = 0
 P30 = 0
 -20 <= Q1 <= 150
 -20 <= Q2 <= 60
 Q3 = 0
 Q4 = 0
 Q5 = 0
 Q6 = 0
 Q7 = 0
 Q8 = 0
 Q9 = 0
 Q10 = 0
 Q11 = 0
 Q12 = 0
 -15 <= Q13 <= 44.7
 Q14 = 0
 Q15 = 0
 Q16 = 0
 Q17 = 0
 Q18 = 0
 Q19 = 0
 Q20 = 0
 Q21 = 0
 -15 <= Q22 <= 62.5
 -10 <= Q23 <= 40
 Q24 = 0
 Q25 = 0
 Q26 = 0
 -15 <= Q27 <= 48.7
 Q28 = 0
 Q29 = 0
 Q30 = 0
End
